Gurobi 12.0.1:   lim:time = 500
  mip:bestbound = 1
Set parameter LogToConsole to value 1
  tech:outlev = 1
Set parameter InfUnbdInfo to value 1
Gurobi Optimizer version 12.0.1 build v12.0.1rc0 (win64 - Windows 11.0 (26100.2))

CPU model: Intel(R) Core(TM) i7-10700 CPU @ 2.90GHz, instruction set [SSE2|AVX|AVX2]
Thread count: 8 physical cores, 16 logical processors, using up to 16 threads

Non-default parameters:
TimeLimit  500
InfUnbdInfo  1

Optimize a model with 191 rows, 154 columns and 862 nonzeros
Model fingerprint: 0xccb114ea
Model has 2 quadratic constraints
Variable types: 18 continuous, 136 integer (0 binary)
Coefficient statistics:
  Matrix range     [1e+00, 1e+05]
  QMatrix range    [1e+00, 1e+00]
  QLMatrix range   [6e+00, 2e+01]
  Objective range  [2e+01, 3e+02]
  Bounds range     [1e+00, 7e+01]
  RHS range        [1e+00, 1e+05]
  QRHS range       [1e+02, 1e+02]
Presolve removed 20 rows and 20 columns
Presolve time: 0.01s
Presolved: 245 rows, 182 columns, 1127 nonzeros
Variable types: 12 continuous, 170 integer (170 binary)
Found heuristic solution: objective 1304.8800000

Root relaxation: objective 6.665700e+02, 24 iterations, 0.00 seconds (0.00 work units)

    Nodes    |    Current Node    |     Objective Bounds      |     Work
 Expl Unexpl |  Obj  Depth IntInf | Incumbent    BestBd   Gap | It/Node Time

     0     0  666.57000    0   12 1304.88000  666.57000  48.9%     -    0s
H    0     0                     895.6200000  666.57000  25.6%     -    0s
H    0     0                     798.3000000  666.57000  16.5%     -    0s
     0     0  713.25000    0   10  798.30000  713.25000  10.7%     -    0s
H    0     0                     789.2400000  713.25000  9.63%     -    0s
     0     0  713.25000    0   10  789.24000  713.25000  9.63%     -    0s
     0     0  713.25000    0   10  789.24000  713.25000  9.63%     -    0s
     0     0  713.25000    0   10  789.24000  713.25000  9.63%     -    0s
     0     0  713.25000    0   12  789.24000  713.25000  9.63%     -    0s
     0     0  713.25000    0   10  789.24000  713.25000  9.63%     -    0s
     0     0  713.25000    0   10  789.24000  713.25000  9.63%     -    0s
     0     0  713.25000    0   10  789.24000  713.25000  9.63%     -    0s
     0     2  713.25000    0   10  789.24000  713.25000  9.63%     -    0s

Cutting planes:
  Learned: 5
  Gomory: 7
  MIR: 12
  StrongCG: 1
  Zero half: 7
  RLT: 18

Explored 54 nodes (559 simplex iterations) in 0.08 seconds (0.05 work units)
Thread count was 16 (of 16 available processors)

Solution count 4: 789.24 798.3 895.62 1304.88 

Optimal solution found (tolerance 1.00e-04)
Best objective 7.892400000000e+02, best bound 7.892400000000e+02, gap 0.0000%

AMPL MP initial flat model has 154 variables (0 integer, 136 binary);
Objectives: 1 linear; 
Constraints:  191 linear; 2 quadratic;

AMPL MP final model has 154 variables (0 integer, 136 binary);
Objectives: 1 linear; 
Constraints:  191 linear; 2 quadratic;


-----RESULTS INFO-----
running_time:  0.125
TC.best_bound:  789.24
TC:  789.2399999999999
MIP Gap (%):  1.4404596538646803e-14
=== Vehicle Routes ===
Vehicle 1: 0 → 14
Vehicle 2: 0 → 2
Vehicle 2: 1 → 5
Vehicle 2: 2 → 7
Vehicle 2: 3 → 14
Vehicle 2: 5 → 3
Vehicle 2: 7 → 1

=== Full Vehicle Routes ===
Vehicle 1: 0 → 0 (0<100)
Vehicle 2: 0 → 2 → 7 → 1 → 5 → 3 → 0 (57<100)
Arc used by MRT line: y variables:
Customer assigment to PL: u variables:
4 7
Node is served by regular vehicle: g variables:
1
2
3
5
7
Customer assigment to Home delivery: gm variables:
1
2
3
5
Node total demands: ntd variables:
1 6 1
2 8 1
3 16 1
5 12 1
12 0 0
13 0 0
6 0 0
7 15 1
8 0 0
9 0 0
10 0 0
11 0 0
Customer's demand delivered to PL: l variables:
4
